Maximize
  - 15 x0 + 46 x1 - 42 x2 + 0 x3 + 33 x4 - 30 x5 + 19 x6 - 20 x7 + 26 x8
   + 27 x9 + 7 x10 + 4 x11 + 49 x12 - 38 x13 + 0 x14 + 23 x15 + 0 x16
   - 31 x17 + 49 x18 - 9 x19 - 6 x20 - 31 x21 + 18 x22 + 0 x23 + 0 x24
   + 32 x25 - 17 x26 + 12 x27 + 44 x28 - 45 x29 + [ 24 x0 ^2 + 54 x0 * x1
   - 88 x0 * x2 + 68 x0 * x4 + 90 x0 * x5 - 8 x0 * x6 - 12 x0 * x7
   - 28 x0 * x8 + 96 x0 * x9 - 16 x0 * x11 + 58 x0 * x12 + 98 x0 * x13
   - 88 x0 * x14 - 50 x0 * x15 - 2 x0 * x16 - 30 x0 * x19 - 22 x0 * x20
   - 40 x0 * x21 + 52 x0 * x22 - 58 x0 * x23 - 48 x0 * x24 - 30 x0 * x25
   - 8 x0 * x26 + 24 x0 * x27 + 80 x0 * x28 + 70 x0 * x29 + 39 x1 ^2
   + 32 x1 * x2 - 2 x1 * x3 + 76 x1 * x4 - 54 x1 * x5 - 8 x1 * x6
   + 68 x1 * x7 - 84 x1 * x8 - 14 x1 * x10 + 40 x1 * x11 + 44 x1 * x12
   - 14 x1 * x13 + 46 x1 * x15 - 50 x1 * x16 + 72 x1 * x17 + 80 x1 * x18
   + 32 x1 * x19 + 54 x1 * x21 + 80 x1 * x22 - 62 x1 * x23 - 32 x1 * x24
   - 66 x1 * x26 - 10 x1 * x28 + 34 x1 * x29 + 36 x2 ^2 - 2 x2 * x3
   + 42 x2 * x4 - 20 x2 * x5 + 8 x2 * x7 - 78 x2 * x10 + 34 x2 * x11
   - 12 x2 * x12 + 34 x2 * x13 + 70 x2 * x14 - 58 x2 * x15 - 94 x2 * x16
   + 92 x2 * x17 - 74 x2 * x19 - 68 x2 * x20 + 96 x2 * x21 + 10 x2 * x22
   - 32 x2 * x23 + 70 x2 * x24 + 82 x2 * x25 - 32 x2 * x26 + 96 x2 * x27
   + 12 x2 * x28 + 74 x2 * x29 + 12 x3 ^2 + 22 x3 * x4 - 90 x3 * x7
   - 82 x3 * x8 + 20 x3 * x9 + 6 x3 * x10 - 72 x3 * x11 - 50 x3 * x12
   - 16 x3 * x13 + 16 x3 * x14 - 4 x3 * x15 + 26 x3 * x16 - 8 x3 * x17
   - 78 x3 * x18 - 64 x3 * x19 + 78 x3 * x22 + 60 x3 * x26 + 32 x3 * x27
   - 14 x3 * x28 + 42 x3 * x29 - 23 x4 ^2 + 24 x4 * x6 - 64 x4 * x7
   + 10 x4 * x8 + 34 x4 * x9 - 42 x4 * x11 + 86 x4 * x12 + 74 x4 * x14
   + 40 x4 * x15 - 72 x4 * x16 + 58 x4 * x18 - 8 x4 * x19 + 16 x4 * x20
   + 68 x4 * x22 + 72 x4 * x24 + 76 x4 * x25 + 90 x4 * x26 - 48 x4 * x27
   - 70 x4 * x28 - 40 x4 * x29 + 47 x5 ^2 + 26 x5 * x6 - 46 x5 * x7
   + 64 x5 * x8 - 36 x5 * x9 - 88 x5 * x10 + 92 x5 * x11 + 66 x5 * x12
   - 76 x5 * x13 - 48 x5 * x14 + 10 x5 * x15 + 16 x5 * x16 + 74 x5 * x17
   + 76 x5 * x18 + 64 x5 * x19 - 18 x5 * x20 + 34 x5 * x21 + 38 x5 * x23
   + 86 x5 * x24 + 66 x5 * x25 - 44 x5 * x26 + 24 x5 * x27 + 12 x5 * x28
   + 36 x5 * x29 + 96 x6 * x7 + 52 x6 * x8 - 78 x6 * x9 + 48 x6 * x10
   + 92 x6 * x11 + 38 x6 * x13 + 58 x6 * x14 + 18 x6 * x15 - 4 x6 * x17
   + 4 x6 * x18 + 44 x6 * x19 + 98 x6 * x20 + 28 x6 * x21 - 40 x6 * x22
   - 28 x6 * x23 - 4 x6 * x25 + 26 x6 * x28 + 36 x6 * x29 - 19 x7 ^2
   - 34 x7 * x8 + 10 x7 * x9 - 90 x7 * x10 + 98 x7 * x11 - 82 x7 * x12
   + 34 x7 * x13 - 66 x7 * x14 + 4 x7 * x15 - 40 x7 * x16 - 50 x7 * x17
   - 60 x7 * x18 - 50 x7 * x20 - 16 x7 * x21 - 80 x7 * x22 - 24 x7 * x23
   - 36 x7 * x24 - 58 x7 * x25 - 4 x7 * x26 + 78 x7 * x27 + 64 x7 * x28
   - 14 x8 ^2 - 28 x8 * x9 + 40 x8 * x10 + 14 x8 * x11 - 38 x8 * x12
   - 12 x8 * x13 - 82 x8 * x14 + 50 x8 * x15 - 42 x8 * x16 + 78 x8 * x18
   - 28 x8 * x19 - 58 x8 * x20 - 22 x8 * x22 + 40 x8 * x23 + 96 x8 * x25
   + 54 x8 * x26 + 12 x8 * x27 + 92 x8 * x28 + 86 x8 * x29 - 44 x9 * x10
   + 88 x9 * x11 - 70 x9 * x12 - 32 x9 * x13 + 96 x9 * x15 + 8 x9 * x16
   - 58 x9 * x17 + 48 x9 * x18 + 28 x9 * x19 + 14 x9 * x20 - 34 x9 * x21
   - 70 x9 * x22 + 80 x9 * x23 + 68 x9 * x24 + 54 x9 * x26 + 80 x9 * x27
   - 16 x9 * x28 + 62 x9 * x29 + 31 x10 ^2 + 26 x10 * x12 + 58 x10 * x13
   - 28 x10 * x14 + 66 x10 * x15 - 84 x10 * x16 + 72 x10 * x17
   + 92 x10 * x18 - 34 x10 * x19 + 54 x10 * x20 - 62 x10 * x21
   + 2 x10 * x23 + 34 x10 * x24 + 88 x10 * x25 + 60 x10 * x26
   - 36 x10 * x27 + 68 x10 * x28 - 38 x10 * x29 - 11 x11 ^2 + 92 x11 * x12
   + 92 x11 * x13 + 32 x11 * x14 - 76 x11 * x15 - 58 x11 * x16
   + 38 x11 * x17 - 48 x11 * x19 - 26 x11 * x20 - 94 x11 * x21
   + 26 x11 * x22 - 34 x11 * x23 + 28 x11 * x24 + 36 x11 * x27
   - 82 x11 * x28 + 28 x11 * x29 + 6 x12 * x15 - 72 x12 * x16
   + 68 x12 * x18 - 86 x12 * x19 - 22 x12 * x20 - 60 x12 * x21
   + 88 x12 * x22 - 88 x12 * x23 - 96 x12 * x25 + 16 x12 * x26
   + 12 x12 * x27 + 14 x12 * x29 - 8 x13 ^2 + 78 x13 * x14 - 84 x13 * x15
   - 6 x13 * x18 - 96 x13 * x20 - 54 x13 * x21 - 70 x13 * x22
   - 68 x13 * x24 - 26 x13 * x25 - 92 x13 * x26 + 2 x13 * x27
   - 90 x13 * x29 + 38 x14 ^2 + 88 x14 * x15 - 66 x14 * x16 - 42 x14 * x17
   + 22 x14 * x18 + 38 x14 * x19 - 60 x14 * x21 - 88 x14 * x23
   + 96 x14 * x24 + 18 x14 * x25 + 26 x14 * x26 - 56 x14 * x27
   - 86 x14 * x28 + 19 x15 ^2 - 78 x15 * x16 - 76 x15 * x17 - 98 x15 * x18
   + 20 x15 * x19 + 80 x15 * x21 + 46 x15 * x22 - 64 x15 * x23
   + 18 x15 * x24 - 94 x15 * x25 + 24 x15 * x26 + 80 x15 * x28
   - 38 x15 * x29 - 26 x16 ^2 - 10 x16 * x18 - 36 x16 * x19 + 82 x16 * x20
   - 52 x16 * x21 + 34 x16 * x24 - 94 x16 * x26 - 36 x16 * x27
   + 4 x16 * x28 + 82 x16 * x29 + 3 x17 ^2 - 64 x17 * x18 - 66 x17 * x19
   - 90 x17 * x20 - 24 x17 * x22 - 74 x17 * x23 - 36 x17 * x24
   + 38 x17 * x25 + 56 x17 * x26 - 12 x17 * x27 + 4 x17 * x29 + 4 x18 * x19
   - 66 x18 * x20 - 64 x18 * x21 - 48 x18 * x23 - 12 x18 * x24
   + 2 x18 * x25 + 6 x18 * x29 + 48 x19 ^2 - 38 x19 * x21 - 52 x19 * x23
   + 22 x19 * x24 - 74 x19 * x25 - 56 x19 * x26 - 52 x19 * x27
   - 86 x19 * x29 + 42 x20 ^2 - 44 x20 * x22 + 88 x20 * x23 + 50 x20 * x24
   + 70 x20 * x27 + 80 x20 * x28 + 72 x20 * x29 + 7 x21 ^2 + 34 x21 * x22
   + 20 x21 * x23 - 10 x21 * x24 - 22 x21 * x25 - 62 x21 * x26
   + 30 x21 * x28 + 82 x22 * x23 - 42 x22 * x24 - 46 x22 * x27
   + 72 x22 * x28 - 42 x23 ^2 + 94 x23 * x24 + 50 x23 * x25 - 58 x23 * x26
   + 2 x23 * x27 + 6 x23 * x28 - 32 x23 * x29 - 36 x24 ^2 + 96 x24 * x26
   - 12 x24 * x28 + 66 x24 * x29 + 2 x25 * x26 - 44 x25 * x27
   - 80 x25 * x28 - 39 x27 ^2 - 74 x27 * x28 - 16 x27 * x29 + 22 x28 ^2
   + 4 x28 * x29 + 36 x29 ^2 ] / 2 
Subject To
Bounds
 x0 <= 1
 x1 <= 1
 x2 <= 1
 x3 <= 1
 x4 <= 1
 x5 <= 1
 x6 <= 1
 x7 <= 1
 x8 <= 1
 x9 <= 1
 x10 <= 1
 x11 <= 1
 x12 <= 1
 x13 <= 1
 x14 <= 1
 x15 <= 1
 x16 <= 1
 x17 <= 1
 x18 <= 1
 x19 <= 1
 x20 <= 1
 x21 <= 1
 x22 <= 1
 x23 <= 1
 x24 <= 1
 x25 <= 1
 x26 <= 1
 x27 <= 1
 x28 <= 1
 x29 <= 1
End
